p cnf 1009 2103
1 0
2 0
3 0
4 0
5 0
6 0
7 0
8 0
9 0
10 0
11 0
12 0
13 0
14 0
15 0
16 0
17 0
18 0
19 0
20 0
21 0
22 0
23 0
24 0
25 0
-26 0
-27 0
-28 0
-29 0
-30 0
-31 0
-32 0
-33 0
-34 0
-35 0
-36 0
-37 0
-38 0
-39 0
-40 0
-41 0
-42 0
-43 0
-44 0
-45 0
-46 0
-47 0
-48 0
-49 0
-50 0
-51 52 0
-53 52 0
51 53 -52 0
1 -52 0
-1 52 0
-54 55 0
-56 55 0
54 56 -55 0
51 -55 0
-51 55 0
-57 58 0
-59 58 0
57 59 -58 0
54 -58 0
-54 58 0
-60 61 0
-62 61 0
60 62 -61 0
57 -61 0
-57 61 0
-63 64 0
-65 64 0
63 65 -64 0
60 -64 0
-60 64 0
-66 67 0
67 -68 0
66 68 -67 0
63 -67 0
-63 67 0
-69 70 0
70 -71 0
69 71 -70 0
66 -70 0
-66 70 0
-72 73 0
-74 73 0
72 74 -73 0
69 -73 0
-69 73 0
-75 76 0
-77 76 0
75 77 -76 0
72 -76 0
-72 76 0
-78 79 0
79 -80 0
78 80 -79 0
75 -79 0
-75 79 0
-81 82 0
82 -83 0
81 83 -82 0
78 -82 0
-78 82 0
-84 85 0
85 -86 0
84 86 -85 0
81 -85 0
-81 85 0
-87 88 0
-89 88 0
87 89 -88 0
84 -88 0
-84 88 0
-71 90 0
-74 90 0
-77 90 0
-80 90 0
-83 90 0
-86 90 0
-89 90 0
-91 90 0
92 0
87 -90 0
-87 90 0
-93 94 0
94 -95 0
93 95 -94 0
2 -94 0
-2 94 0
-96 97 0
-98 97 0
96 98 -97 0
93 -97 0
-93 97 0
-99 100 0
-101 100 0
99 101 -100 0
96 -100 0
-96 100 0
-102 103 0
103 -104 0
102 104 -103 0
99 -103 0
-99 103 0
-105 106 0
-107 106 0
105 107 -106 0
102 -106 0
-102 106 0
-108 109 0
109 -110 0
108 110 -109 0
105 -109 0
-105 109 0
-111 112 0
112 -113 0
111 113 -112 0
108 -112 0
-108 112 0
-114 115 0
115 -116 0
114 116 -115 0
111 -115 0
-111 115 0
-117 118 0
118 -119 0
117 119 -118 0
114 -118 0
-114 118 0
-107 120 0
-110 120 0
-113 120 0
-116 120 0
-119 120 0
-121 120 0
122 0
117 -120 0
-117 120 0
-123 124 0
-125 124 0
123 125 -124 0
3 -124 0
-3 124 0
-126 127 0
-128 127 0
126 128 -127 0
123 -127 0
-123 127 0
-129 130 0
-131 130 0
129 131 -130 0
126 -130 0
-126 130 0
-132 133 0
-134 133 0
132 134 -133 0
129 -133 0
-129 133 0
-135 136 0
-137 136 0
135 137 -136 0
132 -136 0
-132 136 0
-138 139 0
139 -140 0
138 140 -139 0
135 -139 0
-135 139 0
-141 142 0
-143 142 0
141 143 -142 0
138 -142 0
-138 142 0
-144 145 0
-146 145 0
144 146 -145 0
141 -145 0
-141 145 0
-147 148 0
-149 148 0
147 149 -148 0
144 -148 0
-144 148 0
-150 151 0
-152 151 0
150 152 -151 0
147 -151 0
-147 151 0
-153 154 0
154 -155 0
153 155 -154 0
150 -154 0
-150 154 0
-137 156 0
-140 156 0
-143 156 0
-146 156 0
-149 156 0
-152 156 0
-155 156 0
156 -157 0
158 0
153 -156 0
-153 156 0
-159 160 0
-161 160 0
159 161 -160 0
4 -160 0
-4 160 0
-162 163 0
-164 163 0
162 164 -163 0
159 -163 0
-159 163 0
-165 166 0
166 -167 0
165 167 -166 0
162 -166 0
-162 166 0
-168 169 0
-170 169 0
168 170 -169 0
165 -169 0
-165 169 0
-171 172 0
-173 172 0
171 173 -172 0
168 -172 0
-168 172 0
-174 175 0
175 -176 0
174 176 -175 0
171 -175 0
-171 175 0
-177 178 0
-179 178 0
177 179 -178 0
174 -178 0
-174 178 0
-180 181 0
181 -182 0
180 182 -181 0
177 -181 0
-177 181 0
-183 184 0
-185 184 0
183 185 -184 0
180 -184 0
-180 184 0
-186 187 0
-188 187 0
186 188 -187 0
183 -187 0
-183 187 0
-189 190 0
190 -191 0
189 191 -190 0
186 -190 0
-186 190 0
-192 193 0
193 -194 0
192 194 -193 0
189 -193 0
-189 193 0
-195 196 0
196 -197 0
195 197 -196 0
192 -196 0
-192 196 0
-182 198 0
-185 198 0
-188 198 0
-191 198 0
-194 198 0
-197 198 0
198 -199 0
200 0
195 -198 0
-195 198 0
-201 202 0
-203 202 0
201 203 -202 0
5 -202 0
-5 202 0
-204 205 0
-206 205 0
204 206 -205 0
201 -205 0
-201 205 0
-207 208 0
-209 208 0
207 209 -208 0
204 -208 0
-204 208 0
-210 211 0
211 -212 0
210 212 -211 0
207 -211 0
-207 211 0
-213 214 0
-215 214 0
213 215 -214 0
210 -214 0
-210 214 0
-216 217 0
217 -218 0
216 218 -217 0
213 -217 0
-213 217 0
-219 220 0
220 -221 0
219 221 -220 0
216 -220 0
-216 220 0
-222 223 0
-224 223 0
222 224 -223 0
219 -223 0
-219 223 0
-225 226 0
226 -227 0
225 227 -226 0
222 -226 0
-222 226 0
-228 229 0
-230 229 0
228 230 -229 0
225 -229 0
-225 229 0
-215 231 0
-218 231 0
-221 231 0
-224 231 0
-227 231 0
-230 231 0
-232 231 0
233 0
228 -231 0
-228 231 0
-234 235 0
-236 235 0
234 236 -235 0
6 -235 0
-6 235 0
-237 238 0
-239 238 0
237 239 -238 0
234 -238 0
-234 238 0
-240 241 0
-242 241 0
240 242 -241 0
237 -241 0
-237 241 0
-243 244 0
-245 244 0
243 245 -244 0
240 -244 0
-240 244 0
-246 247 0
-248 247 0
246 248 -247 0
243 -247 0
-243 247 0
-249 250 0
250 -251 0
249 251 -250 0
246 -250 0
-246 250 0
-252 253 0
-254 253 0
252 254 -253 0
249 -253 0
-249 253 0
-255 256 0
-257 256 0
255 257 -256 0
252 -256 0
-252 256 0
-258 259 0
-260 259 0
258 260 -259 0
255 -259 0
-255 259 0
-261 262 0
262 -263 0
261 263 -262 0
258 -262 0
-258 262 0
-251 264 0
-254 264 0
-257 264 0
-260 264 0
-263 264 0
264 -265 0
266 0
261 -264 0
-261 264 0
-267 268 0
268 -269 0
267 269 -268 0
7 -268 0
-7 268 0
-270 271 0
-272 271 0
270 272 -271 0
267 -271 0
-267 271 0
-273 274 0
-275 274 0
273 275 -274 0
270 -274 0
-270 274 0
-276 277 0
277 -278 0
276 278 -277 0
273 -277 0
-273 277 0
-279 280 0
-281 280 0
279 281 -280 0
276 -280 0
-276 280 0
-282 283 0
-284 283 0
282 284 -283 0
279 -283 0
-279 283 0
-285 286 0
286 -287 0
285 287 -286 0
282 -286 0
-282 286 0
-288 289 0
289 -290 0
288 290 -289 0
285 -289 0
-285 289 0
-291 292 0
-293 292 0
291 293 -292 0
288 -292 0
-288 292 0
-294 295 0
295 -296 0
294 296 -295 0
291 -295 0
-291 295 0
-297 298 0
-299 298 0
297 299 -298 0
294 -298 0
-294 298 0
-300 301 0
-302 301 0
300 302 -301 0
297 -301 0
-297 301 0
-303 304 0
304 -305 0
303 305 -304 0
300 -304 0
-300 304 0
-306 307 0
307 -308 0
306 308 -307 0
303 -307 0
-303 307 0
-293 309 0
-296 309 0
-299 309 0
-302 309 0
-305 309 0
-308 309 0
-310 309 0
311 0
306 -309 0
-306 309 0
-312 313 0
-314 313 0
312 314 -313 0
8 -313 0
-8 313 0
-315 316 0
316 -317 0
315 317 -316 0
312 -316 0
-312 316 0
-318 319 0
319 -320 0
318 320 -319 0
315 -319 0
-315 319 0
-321 322 0
-323 322 0
321 323 -322 0
318 -322 0
-318 322 0
-324 325 0
325 -326 0
324 326 -325 0
321 -325 0
-321 325 0
-327 328 0
328 -329 0
327 329 -328 0
324 -328 0
-324 328 0
-330 331 0
331 -332 0
330 332 -331 0
327 -331 0
-327 331 0
-333 334 0
334 -335 0
333 335 -334 0
330 -334 0
-330 334 0
-336 337 0
-338 337 0
336 338 -337 0
333 -337 0
-333 337 0
-339 340 0
-341 340 0
339 341 -340 0
336 -340 0
-336 340 0
-326 342 0
-329 342 0
-332 342 0
-335 342 0
-338 342 0
-341 342 0
342 -343 0
344 0
339 -342 0
-339 342 0
-345 346 0
-347 346 0
345 347 -346 0
9 -346 0
-9 346 0
-348 349 0
-350 349 0
348 350 -349 0
345 -349 0
-345 349 0
-351 352 0
-353 352 0
351 353 -352 0
348 -352 0
-348 352 0
-354 355 0
-356 355 0
354 356 -355 0
351 -355 0
-351 355 0
-357 358 0
-359 358 0
357 359 -358 0
354 -358 0
-354 358 0
-360 361 0
361 -362 0
360 362 -361 0
357 -361 0
-357 361 0
-363 364 0
-365 364 0
363 365 -364 0
360 -364 0
-360 364 0
-366 367 0
367 -368 0
366 368 -367 0
363 -367 0
-363 367 0
-369 370 0
-371 370 0
369 371 -370 0
366 -370 0
-366 370 0
-372 373 0
373 -374 0
372 374 -373 0
369 -373 0
-369 373 0
-375 376 0
-377 376 0
375 377 -376 0
372 -376 0
-372 376 0
-378 379 0
-380 379 0
378 380 -379 0
375 -379 0
-375 379 0
-381 382 0
382 -383 0
381 383 -382 0
378 -382 0
-378 382 0
-368 384 0
-371 384 0
-374 384 0
-377 384 0
-380 384 0
-383 384 0
384 -385 0
386 0
381 -384 0
-381 384 0
-387 388 0
388 -389 0
387 389 -388 0
10 -388 0
-10 388 0
-390 391 0
-392 391 0
390 392 -391 0
387 -391 0
-387 391 0
-393 394 0
394 -395 0
393 395 -394 0
390 -394 0
-390 394 0
-396 397 0
-398 397 0
396 398 -397 0
393 -397 0
-393 397 0
-399 400 0
400 -401 0
399 401 -400 0
396 -400 0
-396 400 0
-402 403 0
-404 403 0
402 404 -403 0
399 -403 0
-399 403 0
-405 406 0
406 -407 0
405 407 -406 0
402 -406 0
-402 406 0
-408 409 0
-410 409 0
408 410 -409 0
405 -409 0
-405 409 0
-411 412 0
412 -413 0
411 413 -412 0
408 -412 0
-408 412 0
-414 415 0
415 -416 0
414 416 -415 0
411 -415 0
-411 415 0
-417 418 0
418 -419 0
417 419 -418 0
414 -418 0
-414 418 0
-404 420 0
-407 420 0
-410 420 0
-413 420 0
-416 420 0
-419 420 0
-421 420 0
422 0
417 -420 0
-417 420 0
-423 424 0
424 -425 0
423 425 -424 0
11 -424 0
-11 424 0
-426 427 0
-428 427 0
426 428 -427 0
423 -427 0
-423 427 0
-429 430 0
-431 430 0
429 431 -430 0
426 -430 0
-426 430 0
-432 433 0
-434 433 0
432 434 -433 0
429 -433 0
-429 433 0
-435 436 0
436 -437 0
435 437 -436 0
432 -436 0
-432 436 0
-438 439 0
-440 439 0
438 440 -439 0
435 -439 0
-435 439 0
-441 442 0
442 -443 0
441 443 -442 0
438 -442 0
-438 442 0
-444 445 0
-446 445 0
444 446 -445 0
441 -445 0
-441 445 0
-447 448 0
448 -449 0
447 449 -448 0
444 -448 0
-444 448 0
-450 451 0
451 -452 0
450 452 -451 0
447 -451 0
-447 451 0
-453 454 0
454 -455 0
453 455 -454 0
450 -454 0
-450 454 0
-456 457 0
457 -458 0
456 458 -457 0
453 -457 0
-453 457 0
-446 459 0
-449 459 0
-452 459 0
-455 459 0
-458 459 0
-460 459 0
461 0
456 -459 0
-456 459 0
-462 463 0
463 -464 0
462 464 -463 0
12 -463 0
-12 463 0
-465 466 0
466 -467 0
465 467 -466 0
462 -466 0
-462 466 0
-468 469 0
469 -470 0
468 470 -469 0
465 -469 0
-465 469 0
-471 472 0
-473 472 0
471 473 -472 0
468 -472 0
-468 472 0
-474 475 0
-476 475 0
474 476 -475 0
471 -475 0
-471 475 0
-477 478 0
-479 478 0
477 479 -478 0
474 -478 0
-474 478 0
-480 481 0
481 -482 0
480 482 -481 0
477 -481 0
-477 481 0
-483 484 0
484 -485 0
483 485 -484 0
480 -484 0
-480 484 0
-486 487 0
-488 487 0
486 488 -487 0
483 -487 0
-483 487 0
-489 490 0
-491 490 0
489 491 -490 0
486 -490 0
-486 490 0
-492 493 0
-494 493 0
492 494 -493 0
489 -493 0
-489 493 0
-495 496 0
496 -497 0
495 497 -496 0
492 -496 0
-492 496 0
-482 498 0
-485 498 0
-488 498 0
-491 498 0
-494 498 0
-497 498 0
498 -499 0
500 0
495 -498 0
-495 498 0
-501 502 0
502 -503 0
501 503 -502 0
13 -502 0
-13 502 0
-504 505 0
-506 505 0
504 506 -505 0
501 -505 0
-501 505 0
-507 508 0
-509 508 0
507 509 -508 0
504 -508 0
-504 508 0
-510 511 0
-512 511 0
510 512 -511 0
507 -511 0
-507 511 0
-513 514 0
-515 514 0
513 515 -514 0
510 -514 0
-510 514 0
-516 517 0
-518 517 0
516 518 -517 0
513 -517 0
-513 517 0
-519 520 0
520 -521 0
519 521 -520 0
516 -520 0
-516 520 0
-522 523 0
523 -524 0
522 524 -523 0
519 -523 0
-519 523 0
-525 526 0
526 -527 0
525 527 -526 0
522 -526 0
-522 526 0
-528 529 0
529 -530 0
528 530 -529 0
525 -529 0
-525 529 0
-515 531 0
-518 531 0
-521 531 0
-524 531 0
-527 531 0
-530 531 0
531 -532 0
533 0
528 -531 0
-528 531 0
-534 535 0
535 -536 0
534 536 -535 0
14 -535 0
-14 535 0
-537 538 0
538 -539 0
537 539 -538 0
534 -538 0
-534 538 0
-540 541 0
541 -542 0
540 542 -541 0
537 -541 0
-537 541 0
-543 544 0
544 -545 0
543 545 -544 0
540 -544 0
-540 544 0
-546 547 0
547 -548 0
546 548 -547 0
543 -547 0
-543 547 0
-549 550 0
-551 550 0
549 551 -550 0
546 -550 0
-546 550 0
-552 553 0
-554 553 0
552 554 -553 0
549 -553 0
-549 553 0
-555 556 0
-557 556 0
555 557 -556 0
552 -556 0
-552 556 0
-558 559 0
-560 559 0
558 560 -559 0
555 -559 0
-555 559 0
-561 562 0
562 -563 0
561 563 -562 0
558 -562 0
-558 562 0
-564 565 0
-566 565 0
564 566 -565 0
561 -565 0
-561 565 0
-567 568 0
-569 568 0
567 569 -568 0
564 -568 0
-564 568 0
-570 571 0
-572 571 0
570 572 -571 0
567 -571 0
-567 571 0
-560 573 0
-563 573 0
-566 573 0
-569 573 0
-572 573 0
573 -574 0
575 0
570 -573 0
-570 573 0
-576 577 0
-578 577 0
576 578 -577 0
15 -577 0
-15 577 0
-579 580 0
-581 580 0
579 581 -580 0
576 -580 0
-576 580 0
-582 583 0
583 -584 0
582 584 -583 0
579 -583 0
-579 583 0
-585 586 0
586 -587 0
585 587 -586 0
582 -586 0
-582 586 0
-588 589 0
589 -590 0
588 590 -589 0
585 -589 0
-585 589 0
-591 592 0
592 -593 0
591 593 -592 0
588 -592 0
-588 592 0
-594 595 0
-596 595 0
594 596 -595 0
591 -595 0
-591 595 0
-597 598 0
-599 598 0
597 599 -598 0
594 -598 0
-594 598 0
-600 601 0
601 -602 0
600 602 -601 0
597 -601 0
-597 601 0
-603 604 0
604 -605 0
603 605 -604 0
600 -604 0
-600 604 0
-606 607 0
-608 607 0
606 608 -607 0
603 -607 0
-603 607 0
-593 609 0
-596 609 0
-599 609 0
-602 609 0
-605 609 0
-608 609 0
-610 609 0
611 0
606 -609 0
-606 609 0
-612 613 0
-614 613 0
612 614 -613 0
16 -613 0
-16 613 0
-615 616 0
-617 616 0
615 617 -616 0
612 -616 0
-612 616 0
-618 619 0
619 -620 0
618 620 -619 0
615 -619 0
-615 619 0
-621 622 0
622 -623 0
621 623 -622 0
618 -622 0
-618 622 0
-624 625 0
625 -626 0
624 626 -625 0
621 -625 0
-621 625 0
-627 628 0
-629 628 0
627 629 -628 0
624 -628 0
-624 628 0
-630 631 0
-632 631 0
630 632 -631 0
627 -631 0
-627 631 0
-633 634 0
634 -635 0
633 635 -634 0
630 -634 0
-630 634 0
-636 637 0
-638 637 0
636 638 -637 0
633 -637 0
-633 637 0
-639 640 0
640 -641 0
639 641 -640 0
636 -640 0
-636 640 0
-642 643 0
-644 643 0
642 644 -643 0
639 -643 0
-639 643 0
-629 645 0
-632 645 0
-635 645 0
-638 645 0
-641 645 0
-644 645 0
-646 645 0
647 0
642 -645 0
-642 645 0
-648 649 0
649 -650 0
648 650 -649 0
17 -649 0
-17 649 0
-651 652 0
652 -653 0
651 653 -652 0
648 -652 0
-648 652 0
-654 655 0
-656 655 0
654 656 -655 0
651 -655 0
-651 655 0
-657 658 0
-659 658 0
657 659 -658 0
654 -658 0
-654 658 0
-660 661 0
661 -662 0
660 662 -661 0
657 -661 0
-657 661 0
-663 664 0
-665 664 0
663 665 -664 0
660 -664 0
-660 664 0
663 -666 0
-663 666 0
-667 668 0
668 -669 0
667 669 -668 0
18 -668 0
-18 668 0
-670 671 0
671 -672 0
670 672 -671 0
667 -671 0
-667 671 0
-673 674 0
-675 674 0
673 675 -674 0
670 -674 0
-670 674 0
-676 677 0
677 -678 0
676 678 -677 0
673 -677 0
-673 677 0
-679 680 0
-681 680 0
679 681 -680 0
676 -680 0
-676 680 0
-682 683 0
-684 683 0
682 684 -683 0
679 -683 0
-679 683 0
-685 686 0
686 -687 0
685 687 -686 0
682 -686 0
-682 686 0
-688 689 0
-690 689 0
688 690 -689 0
685 -689 0
-685 689 0
-691 692 0
692 -693 0
691 693 -692 0
688 -692 0
-688 692 0
-694 695 0
695 -696 0
694 696 -695 0
691 -695 0
-691 695 0
-697 698 0
-699 698 0
697 699 -698 0
694 -698 0
-694 698 0
-700 701 0
-702 701 0
700 702 -701 0
697 -701 0
-697 701 0
-690 703 0
-693 703 0
-696 703 0
-699 703 0
-702 703 0
-704 703 0
705 0
700 -703 0
-700 703 0
-706 707 0
-708 707 0
706 708 -707 0
19 -707 0
-19 707 0
-709 710 0
710 -711 0
709 711 -710 0
706 -710 0
-706 710 0
-712 713 0
713 -714 0
712 714 -713 0
709 -713 0
-709 713 0
-715 716 0
716 -717 0
715 717 -716 0
712 -716 0
-712 716 0
-718 719 0
-720 719 0
718 720 -719 0
715 -719 0
-715 719 0
-721 722 0
-723 722 0
721 723 -722 0
718 -722 0
-718 722 0
-724 725 0
725 -726 0
724 726 -725 0
721 -725 0
-721 725 0
-727 728 0
-729 728 0
727 729 -728 0
724 -728 0
-724 728 0
-730 731 0
-732 731 0
730 732 -731 0
727 -731 0
-727 731 0
-733 734 0
734 -735 0
733 735 -734 0
730 -734 0
-730 734 0
-736 737 0
-738 737 0
736 738 -737 0
733 -737 0
-733 737 0
-739 740 0
-741 740 0
739 741 -740 0
736 -740 0
-736 740 0
-742 743 0
743 -744 0
742 744 -743 0
739 -743 0
-739 743 0
-745 746 0
746 -747 0
745 747 -746 0
742 -746 0
-742 746 0
-748 749 0
-750 749 0
748 750 -749 0
745 -749 0
-745 749 0
-732 751 0
-735 751 0
-738 751 0
-741 751 0
-744 751 0
-747 751 0
-750 751 0
751 -752 0
753 0
748 -751 0
-748 751 0
-754 755 0
-756 755 0
754 756 -755 0
20 -755 0
-20 755 0
-757 758 0
758 -759 0
757 759 -758 0
754 -758 0
-754 758 0
-760 761 0
761 -762 0
760 762 -761 0
757 -761 0
-757 761 0
-763 764 0
764 -765 0
763 765 -764 0
760 -764 0
-760 764 0
-766 767 0
-768 767 0
766 768 -767 0
763 -767 0
-763 767 0
-769 770 0
770 -771 0
769 771 -770 0
766 -770 0
-766 770 0
-772 773 0
-774 773 0
772 774 -773 0
769 -773 0
-769 773 0
-775 776 0
776 -777 0
775 777 -776 0
772 -776 0
-772 776 0
-778 779 0
779 -780 0
778 780 -779 0
775 -779 0
-775 779 0
-781 782 0
-783 782 0
781 783 -782 0
778 -782 0
-778 782 0
-784 785 0
-786 785 0
784 786 -785 0
781 -785 0
-781 785 0
-771 787 0
-774 787 0
-777 787 0
-780 787 0
-783 787 0
-786 787 0
787 -788 0
789 0
784 -787 0
-784 787 0
-790 791 0
791 -792 0
790 792 -791 0
21 -791 0
-21 791 0
-793 794 0
794 -795 0
793 795 -794 0
790 -794 0
-790 794 0
-796 797 0
797 -798 0
796 798 -797 0
793 -797 0
-793 797 0
-799 800 0
-801 800 0
799 801 -800 0
796 -800 0
-796 800 0
-802 803 0
803 -804 0
802 804 -803 0
799 -803 0
-799 803 0
-805 806 0
806 -807 0
805 807 -806 0
802 -806 0
-802 806 0
-808 809 0
809 -810 0
808 810 -809 0
805 -809 0
-805 809 0
-811 812 0
812 -813 0
811 813 -812 0
808 -812 0
-808 812 0
-801 814 0
-804 814 0
-807 814 0
-810 814 0
-813 814 0
-815 814 0
816 0
811 -814 0
-811 814 0
-817 818 0
-819 818 0
817 819 -818 0
22 -818 0
-22 818 0
-820 821 0
-822 821 0
820 822 -821 0
817 -821 0
-817 821 0
-823 824 0
824 -825 0
823 825 -824 0
820 -824 0
-820 824 0
-826 827 0
827 -828 0
826 828 -827 0
823 -827 0
-823 827 0
-829 830 0
-831 830 0
829 831 -830 0
826 -830 0
-826 830 0
-832 833 0
-834 833 0
832 834 -833 0
829 -833 0
-829 833 0
-835 836 0
836 -837 0
835 837 -836 0
832 -836 0
-832 836 0
-838 839 0
-840 839 0
838 840 -839 0
835 -839 0
-835 839 0
-841 842 0
-843 842 0
841 843 -842 0
838 -842 0
-838 842 0
-844 845 0
-846 845 0
844 846 -845 0
841 -845 0
-841 845 0
-847 848 0
848 -849 0
847 849 -848 0
844 -848 0
-844 848 0
-850 851 0
851 -852 0
850 852 -851 0
847 -851 0
-847 851 0
-853 854 0
854 -855 0
853 855 -854 0
850 -854 0
-850 854 0
-837 856 0
-840 856 0
-843 856 0
-846 856 0
-849 856 0
-852 856 0
-855 856 0
856 -857 0
858 0
853 -856 0
-853 856 0
-859 860 0
860 -861 0
859 861 -860 0
23 -860 0
-23 860 0
-862 863 0
863 -864 0
862 864 -863 0
859 -863 0
-859 863 0
-865 866 0
866 -867 0
865 867 -866 0
862 -866 0
-862 866 0
-868 869 0
-870 869 0
868 870 -869 0
865 -869 0
-865 869 0
-871 872 0
-873 872 0
871 873 -872 0
868 -872 0
-868 872 0
-874 875 0
875 -876 0
874 876 -875 0
871 -875 0
-871 875 0
-877 878 0
-879 878 0
877 879 -878 0
874 -878 0
-874 878 0
-880 881 0
881 -882 0
880 882 -881 0
877 -881 0
-877 881 0
-883 884 0
-885 884 0
883 885 -884 0
880 -884 0
-880 884 0
-886 887 0
887 -888 0
886 888 -887 0
883 -887 0
-883 887 0
-889 890 0
-891 890 0
889 891 -890 0
886 -890 0
-886 890 0
-892 893 0
-894 893 0
892 894 -893 0
889 -893 0
-889 893 0
-895 896 0
896 -897 0
895 897 -896 0
892 -896 0
-892 896 0
-882 898 0
-885 898 0
-888 898 0
-891 898 0
-894 898 0
-897 898 0
898 -899 0
900 0
895 -898 0
-895 898 0
-901 902 0
902 -903 0
901 903 -902 0
24 -902 0
-24 902 0
-904 905 0
-906 905 0
904 906 -905 0
901 -905 0
-901 905 0
-907 908 0
908 -909 0
907 909 -908 0
904 -908 0
-904 908 0
-910 911 0
911 -912 0
910 912 -911 0
907 -911 0
-907 911 0
-913 914 0
914 -915 0
913 915 -914 0
910 -914 0
-910 914 0
-916 917 0
917 -918 0
916 918 -917 0
913 -917 0
-913 917 0
-919 920 0
-921 920 0
919 921 -920 0
916 -920 0
-916 920 0
-922 923 0
-924 923 0
922 924 -923 0
919 -923 0
-919 923 0
-925 926 0
-927 926 0
925 927 -926 0
922 -926 0
-922 926 0
-928 929 0
-930 929 0
928 930 -929 0
925 -929 0
-925 929 0
-918 931 0
-921 931 0
-924 931 0
-927 931 0
-930 931 0
-932 931 0
933 0
928 -931 0
-928 931 0
-934 935 0
-936 935 0
934 936 -935 0
25 -935 0
-25 935 0
-937 938 0
-939 938 0
937 939 -938 0
934 -938 0
-934 938 0
-940 941 0
941 -942 0
940 942 -941 0
937 -941 0
-937 941 0
-943 944 0
944 -945 0
943 945 -944 0
940 -944 0
-940 944 0
-946 947 0
947 -948 0
946 948 -947 0
943 -947 0
-943 947 0
-949 950 0
-951 950 0
949 951 -950 0
946 -950 0
-946 950 0
-952 953 0
-954 953 0
952 954 -953 0
949 -953 0
-949 953 0
-955 956 0
956 -957 0
955 957 -956 0
952 -956 0
-952 956 0
-958 959 0
959 -960 0
958 960 -959 0
955 -959 0
-955 959 0
-961 962 0
962 -963 0
961 963 -962 0
958 -962 0
-958 962 0
-964 965 0
965 -966 0
964 966 -965 0
961 -965 0
-961 965 0
-967 968 0
968 -969 0
967 969 -968 0
964 -968 0
-964 968 0
-970 971 0
-972 971 0
970 972 -971 0
967 -971 0
-967 971 0
-954 973 0
-957 973 0
-960 973 0
-963 973 0
-966 973 0
-969 973 0
-972 973 0
973 -974 0
975 0
970 -973 0
-970 973 0
26 -976 0
-26 976 0
27 -977 0
-27 977 0
28 -978 0
-28 978 0
29 -979 0
-29 979 0
30 -980 0
-30 980 0
31 -981 0
-31 981 0
32 -982 0
-32 982 0
33 -983 0
-33 983 0
34 -984 0
-34 984 0
35 -985 0
-35 985 0
36 -986 0
-36 986 0
37 -987 0
-37 987 0
38 -988 0
-38 988 0
39 -989 0
-39 989 0
40 -990 0
-40 990 0
41 -991 0
-41 991 0
42 -992 0
-42 992 0
43 -993 0
-43 993 0
44 -994 0
-44 994 0
45 -995 0
-45 995 0
46 -996 0
-46 996 0
47 -997 0
-47 997 0
48 -998 0
-48 998 0
49 -999 0
-49 999 0
50 -1000 0
-50 1000 0
-1001 -53 0
-1001 -56 0
-1001 -59 0
-1001 -62 0
-1001 -65 0
68 -1001 0
71 -1001 0
-1001 -74 0
-1001 -77 0
80 -1001 0
83 -1001 0
86 -1001 0
-1001 -89 0
-1001 -91 0
95 -1001 0
-1001 -98 0
-1001 -101 0
104 -1001 0
-1001 -107 0
110 -1001 0
113 -1001 0
116 -1001 0
119 -1001 0
-1001 -121 0
-1001 -125 0
-1001 -128 0
-1001 -131 0
-1001 -134 0
-1001 -137 0
140 -1001 0
-1001 -143 0
-1001 -146 0
-1001 -149 0
-1001 -152 0
155 -1001 0
157 -1001 0
-1001 -161 0
-1001 -164 0
167 -1001 0
-1001 -170 0
-1001 -173 0
176 -1001 0
-1001 -179 0
182 -1001 0
-1001 -185 0
-1001 -188 0
191 -1001 0
194 -1001 0
197 -1001 0
199 -1001 0
-1001 -203 0
-1001 -206 0
-1001 -209 0
212 -1001 0
-1001 -215 0
218 -1001 0
221 -1001 0
-1001 -224 0
227 -1001 0
-1001 -230 0
-1001 -232 0
-1001 -236 0
-1001 -239 0
-1001 -242 0
-1001 -245 0
-1001 -248 0
251 -1001 0
-1001 -254 0
-1001 -257 0
-1001 -260 0
263 -1001 0
265 -1001 0
269 -1001 0
-1001 -272 0
-1001 -275 0
278 -1001 0
-1001 -281 0
-1001 -284 0
287 -1001 0
290 -1001 0
-1001 -293 0
296 -1001 0
-1001 -299 0
-1001 -302 0
305 -1001 0
308 -1001 0
-1001 -310 0
-1001 -314 0
317 -1001 0
320 -1001 0
-1001 -323 0
326 -1001 0
329 -1001 0
332 -1001 0
335 -1001 0
-1001 -338 0
-1001 -341 0
343 -1001 0
-1001 -347 0
-1001 -350 0
-1001 -353 0
-1001 -356 0
-1001 -359 0
362 -1001 0
-1001 -365 0
368 -1001 0
-1001 -371 0
374 -1001 0
-1001 -377 0
-1001 -380 0
383 -1001 0
385 -1001 0
389 -1001 0
-1001 -392 0
395 -1001 0
-1001 -398 0
401 -1001 0
-1001 -404 0
407 -1001 0
-1001 -410 0
413 -1001 0
416 -1001 0
419 -1001 0
-1001 -421 0
425 -1001 0
-1001 -428 0
-1001 -431 0
-1001 -434 0
437 -1001 0
-1001 -440 0
443 -1001 0
-1001 -446 0
449 -1001 0
452 -1001 0
455 -1001 0
458 -1001 0
-1001 -460 0
464 -1001 0
467 -1001 0
470 -1001 0
-1001 -473 0
-1001 -476 0
-1001 -479 0
482 -1001 0
485 -1001 0
-1001 -488 0
-1001 -491 0
-1001 -494 0
497 -1001 0
499 -1001 0
503 -1001 0
-1001 -506 0
-1001 -509 0
-1001 -512 0
-1001 -515 0
-1001 -518 0
521 -1001 0
524 -1001 0
527 -1001 0
530 -1001 0
532 -1001 0
536 -1001 0
539 -1001 0
542 -1001 0
545 -1001 0
548 -1001 0
-1001 -551 0
-1001 -554 0
-1001 -557 0
-1001 -560 0
563 -1001 0
-1001 -566 0
-1001 -569 0
-1001 -572 0
574 -1001 0
-1001 -578 0
-1001 -581 0
584 -1001 0
587 -1001 0
590 -1001 0
593 -1001 0
-1001 -596 0
-1001 -599 0
602 -1001 0
605 -1001 0
-1001 -608 0
-1001 -610 0
-1001 -614 0
-1001 -617 0
620 -1001 0
623 -1001 0
626 -1001 0
-1001 -629 0
-1001 -632 0
635 -1001 0
-1001 -638 0
641 -1001 0
-1001 -644 0
-1001 -646 0
650 -1001 0
653 -1001 0
-1001 -656 0
-1001 -659 0
662 -1001 0
-1001 -665 0
666 -1001 0
669 -1001 0
672 -1001 0
-1001 -675 0
678 -1001 0
-1001 -681 0
-1001 -684 0
687 -1001 0
-1001 -690 0
693 -1001 0
696 -1001 0
-1001 -699 0
-1001 -702 0
-1001 -704 0
-1001 -708 0
711 -1001 0
714 -1001 0
717 -1001 0
-1001 -720 0
-1001 -723 0
726 -1001 0
-1001 -729 0
-1001 -732 0
735 -1001 0
-1001 -738 0
-1001 -741 0
744 -1001 0
747 -1001 0
-1001 -750 0
752 -1001 0
-1001 -756 0
759 -1001 0
762 -1001 0
765 -1001 0
-1001 -768 0
771 -1001 0
-1001 -774 0
777 -1001 0
780 -1001 0
-1001 -783 0
-1001 -786 0
788 -1001 0
792 -1001 0
795 -1001 0
798 -1001 0
-1001 -801 0
804 -1001 0
807 -1001 0
810 -1001 0
813 -1001 0
-1001 -815 0
-1001 -819 0
-1001 -822 0
825 -1001 0
828 -1001 0
-1001 -831 0
-1001 -834 0
837 -1001 0
-1001 -840 0
-1001 -843 0
-1001 -846 0
849 -1001 0
852 -1001 0
855 -1001 0
857 -1001 0
861 -1001 0
864 -1001 0
867 -1001 0
-1001 -870 0
-1001 -873 0
876 -1001 0
-1001 -879 0
882 -1001 0
-1001 -885 0
888 -1001 0
-1001 -891 0
-1001 -894 0
897 -1001 0
899 -1001 0
903 -1001 0
-1001 -906 0
909 -1001 0
912 -1001 0
915 -1001 0
918 -1001 0
-1001 -921 0
-1001 -924 0
-1001 -927 0
-1001 -930 0
-1001 -932 0
-1001 -936 0
-1001 -939 0
942 -1001 0
945 -1001 0
948 -1001 0
-1001 -951 0
-1001 -954 0
957 -1001 0
960 -1001 0
963 -1001 0
966 -1001 0
969 -1001 0
-1001 -972 0
974 -1001 0
-1001 -976 0
-1001 -977 0
-1001 -978 0
-1001 -979 0
-1001 -980 0
-1001 -981 0
-1001 -982 0
-1001 -983 0
-1001 -984 0
-1001 -985 0
-1001 -986 0
-1001 -987 0
-1001 -988 0
-1001 -989 0
-1001 -990 0
-1001 -991 0
-1001 -992 0
-1001 -993 0
-1001 -994 0
-1001 -995 0
-1001 -996 0
-1001 -997 0
-1001 -998 0
-1001 -999 0
-1001 -1000 0
1001 0
-1002 0
-1003 0
-1004 0
-1005 0
-1006 0
-1007 0
-1008 0
-1009 0
